p tw 40 85
e 0 5
e 0 25
e 0 29
e 1 7
e 1 12
e 1 24
e 1 26
e 1 35
e 2 15
e 2 21
e 3 15
e 3 17
e 3 18
e 3 25
e 4 6
e 4 15
e 4 31
e 4 36
e 5 8
e 5 9
e 5 13
e 5 16
e 5 22
e 5 28
e 5 29
e 5 31
e 6 33
e 6 34
e 7 8
e 7 23
e 8 13
e 8 15
e 8 19
e 8 24
e 8 26
e 8 27
e 8 28
e 8 30
e 10 13
e 10 15
e 10 19
e 10 36
e 11 18
e 12 15
e 12 17
e 12 20
e 12 33
e 12 38
e 13 17
e 13 32
e 13 36
e 14 16
e 14 17
e 14 21
e 14 28
e 14 39
e 16 18
e 16 24
e 16 37
e 16 38
e 17 30
e 17 34
e 17 35
e 20 27
e 21 22
e 22 25
e 22 27
e 22 28
e 22 29
e 22 38
e 24 27
e 24 30
e 24 31
e 24 36
e 25 30
e 25 35
e 27 31
e 29 30
e 29 31
e 29 34
e 29 39
e 31 33
e 32 35
e 32 37
e 34 35
